p tw 124 131
1 2
2 37
3 14
4 5
5 6
6 7
7 8
8 9
9 10
10 11
11 12
12 13
13 15
14 25
15 16
16 17
17 18
18 19
19 20
20 21
21 22
22 23
23 80
24 26
25 30
26 27
27 28
28 29
30 31
31 32
32 33
33 34
34 35
35 36
36 38
37 48
38 39
39 40
39 44
40 41
41 42
42 43
43 44
43 58
44 45
45 46
46 47
47 49
48 59
49 50
50 51
51 52
52 53
53 54
54 55
55 56
56 57
57 28
58 60
59 70
60 61
61 62
62 63
63 64
64 65
65 66
66 67
67 68
68 69
69 71
70 81
71 72
72 73
73 74
74 75
75 76
76 77
77 78
78 79
79 80
80 82
81 92
81 3
82 83
83 84
84 85
85 86
85 89
86 87
87 88
88 89
88 91
89 90
90 28
91 93
92 103
93 94
94 95
95 96
96 97
97 98
98 99
99 100
100 101
100 104
101 102
102 28
103 114
103 84
104 105
105 106
106 107
106 80
107 108
108 109
109 110
110 111
111 112
112 113
113 115
114 24
115 116
116 117
117 118
118 119
119 120
120 121
121 122
122 123
123 124
124 4
